p cnf 66 885
1 2 3 4 5 6 7 8 9 10 11 12 13 14 15 16 17 18 19 20 21 22 0
23 24 25 26 27 28 29 30 31 32 33 34 35 36 37 38 39 40 41 42 43 44 0
45 46 47 48 49 50 51 52 53 54 55 56 57 58 59 60 61 62 63 64 65 66 0
-1 -23 0
-2 -24 0
-3 -25 0
-4 -26 0
-5 -27 0
-6 -28 0
-7 -29 0
-8 -30 0
-9 -31 0
-10 -32 0
-11 -33 0
-12 -34 0
-13 -35 0
-14 -36 0
-15 -37 0
-16 -38 0
-17 -39 0
-18 -40 0
-19 -41 0
-20 -42 0
-21 -43 0
-22 -44 0
-1 -45 0
-2 -46 0
-3 -47 0
-4 -48 0
-5 -49 0
-6 -50 0
-7 -51 0
-8 -52 0
-9 -53 0
-10 -54 0
-11 -55 0
-12 -56 0
-13 -57 0
-14 -58 0
-15 -59 0
-16 -60 0
-17 -61 0
-18 -62 0
-19 -63 0
-20 -64 0
-21 -65 0
-22 -66 0
-23 -45 0
-24 -46 0
-25 -47 0
-26 -48 0
-27 -49 0
-28 -50 0
-29 -51 0
-30 -52 0
-31 -53 0
-32 -54 0
-33 -55 0
-34 -56 0
-35 -57 0
-36 -58 0
-37 -59 0
-38 -60 0
-39 -61 0
-40 -62 0
-41 -63 0
-42 -64 0
-43 -65 0
-44 -66 0
-1 -33 0
-1 -35 0
-1 -36 0
-1 -38 0
-1 -39 0
-1 -44 0
-2 -23 0
-2 -25 0
-2 -30 0
-2 -31 0
-3 -23 0
-3 -24 0
-3 -27 0
-3 -29 0
-3 -32 0
-3 -36 0
-3 -41 0
-4 -23 0
-4 -24 0
-4 -25 0
-4 -27 0
-4 -28 0
-4 -31 0
-4 -39 0
-4 -43 0
-5 -23 0
-5 -24 0
-5 -25 0
-5 -26 0
-5 -31 0
-5 -39 0
-5 -40 0
-5 -41 0
-5 -44 0
-6 -23 0
-6 -24 0
-6 -25 0
-6 -26 0
-6 -27 0
-6 -30 0
-6 -32 0
-6 -37 0
-7 -23 0
-7 -24 0
-7 -25 0
-7 -26 0
-7 -27 0
-7 -28 0
-7 -30 0
-7 -36 0
-8 -23 0
-8 -24 0
-8 -25 0
-8 -26 0
-8 -27 0
-8 -28 0
-8 -29 0
-8 -41 0
-9 -23 0
-9 -24 0
-9 -25 0
-9 -26 0
-9 -27 0
-9 -28 0
-9 -29 0
-9 -30 0
-9 -32 0
-9 -36 0
-9 -41 0
-10 -23 0
-10 -24 0
-10 -25 0
-10 -26 0
-10 -27 0
-10 -28 0
-10 -29 0
-10 -30 0
-10 -31 0
-10 -35 0
-10 -39 0
-10 -42 0
-11 -23 0
-11 -24 0
-11 -25 0
-11 -26 0
-11 -27 0
-11 -28 0
-11 -29 0
-11 -30 0
-11 -31 0
-11 -32 0
-11 -35 0
-12 -23 0
-12 -24 0
-12 -25 0
-12 -26 0
-12 -27 0
-12 -28 0
-12 -29 0
-12 -30 0
-12 -31 0
-12 -32 0
-12 -33 0
-13 -23 0
-13 -24 0
-13 -25 0
-13 -26 0
-13 -27 0
-13 -28 0
-13 -29 0
-13 -30 0
-13 -31 0
-13 -32 0
-13 -33 0
-13 -34 0
-14 -23 0
-14 -24 0
-14 -25 0
-14 -26 0
-14 -27 0
-14 -28 0
-14 -29 0
-14 -30 0
-14 -31 0
-14 -32 0
-14 -33 0
-14 -34 0
-14 -35 0
-14 -40 0
-14 -42 0
-15 -23 0
-15 -24 0
-15 -25 0
-15 -26 0
-15 -27 0
-15 -28 0
-15 -29 0
-15 -30 0
-15 -31 0
-15 -32 0
-15 -33 0
-15 -34 0
-15 -35 0
-15 -36 0
-15 -43 0
-16 -23 0
-16 -24 0
-16 -25 0
-16 -26 0
-16 -27 0
-16 -28 0
-16 -29 0
-16 -30 0
-16 -31 0
-16 -32 0
-16 -33 0
-16 -34 0
-16 -35 0
-16 -36 0
-16 -37 0
-17 -23 0
-17 -24 0
-17 -25 0
-17 -26 0
-17 -27 0
-17 -28 0
-17 -29 0
-17 -30 0
-17 -31 0
-17 -32 0
-17 -33 0
-17 -34 0
-17 -35 0
-17 -36 0
-17 -37 0
-17 -38 0
-17 -41 0
-18 -23 0
-18 -24 0
-18 -25 0
-18 -26 0
-18 -27 0
-18 -28 0
-18 -29 0
-18 -30 0
-18 -31 0
-18 -32 0
-18 -33 0
-18 -34 0
-18 -35 0
-18 -36 0
-18 -37 0
-18 -38 0
-18 -39 0
-19 -23 0
-19 -24 0
-19 -25 0
-19 -26 0
-19 -27 0
-19 -28 0
-19 -29 0
-19 -30 0
-19 -31 0
-19 -32 0
-19 -33 0
-19 -34 0
-19 -35 0
-19 -36 0
-19 -37 0
-19 -38 0
-19 -39 0
-19 -40 0
-20 -23 0
-20 -24 0
-20 -25 0
-20 -26 0
-20 -27 0
-20 -28 0
-20 -29 0
-20 -30 0
-20 -31 0
-20 -32 0
-20 -33 0
-20 -34 0
-20 -35 0
-20 -36 0
-20 -37 0
-20 -38 0
-20 -39 0
-20 -40 0
-20 -41 0
-21 -23 0
-21 -24 0
-21 -25 0
-21 -26 0
-21 -27 0
-21 -28 0
-21 -29 0
-21 -30 0
-21 -31 0
-21 -32 0
-21 -33 0
-21 -34 0
-21 -35 0
-21 -36 0
-21 -37 0
-21 -38 0
-21 -39 0
-21 -40 0
-21 -41 0
-21 -42 0
-22 -23 0
-22 -24 0
-22 -25 0
-22 -26 0
-22 -27 0
-22 -28 0
-22 -29 0
-22 -30 0
-22 -31 0
-22 -32 0
-22 -33 0
-22 -34 0
-22 -35 0
-22 -36 0
-22 -37 0
-22 -38 0
-22 -39 0
-22 -40 0
-22 -41 0
-22 -42 0
-22 -43 0
-1 -55 0
-1 -57 0
-1 -58 0
-1 -60 0
-1 -61 0
-1 -66 0
-2 -45 0
-2 -47 0
-2 -52 0
-2 -53 0
-3 -45 0
-3 -46 0
-3 -49 0
-3 -51 0
-3 -54 0
-3 -58 0
-3 -63 0
-4 -45 0
-4 -46 0
-4 -47 0
-4 -49 0
-4 -50 0
-4 -53 0
-4 -61 0
-4 -65 0
-5 -45 0
-5 -46 0
-5 -47 0
-5 -48 0
-5 -53 0
-5 -61 0
-5 -62 0
-5 -63 0
-5 -66 0
-6 -45 0
-6 -46 0
-6 -47 0
-6 -48 0
-6 -49 0
-6 -52 0
-6 -54 0
-6 -59 0
-7 -45 0
-7 -46 0
-7 -47 0
-7 -48 0
-7 -49 0
-7 -50 0
-7 -52 0
-7 -58 0
-8 -45 0
-8 -46 0
-8 -47 0
-8 -48 0
-8 -49 0
-8 -50 0
-8 -51 0
-8 -63 0
-9 -45 0
-9 -46 0
-9 -47 0
-9 -48 0
-9 -49 0
-9 -50 0
-9 -51 0
-9 -52 0
-9 -54 0
-9 -58 0
-9 -63 0
-10 -45 0
-10 -46 0
-10 -47 0
-10 -48 0
-10 -49 0
-10 -50 0
-10 -51 0
-10 -52 0
-10 -53 0
-10 -57 0
-10 -61 0
-10 -64 0
-11 -45 0
-11 -46 0
-11 -47 0
-11 -48 0
-11 -49 0
-11 -50 0
-11 -51 0
-11 -52 0
-11 -53 0
-11 -54 0
-11 -57 0
-12 -45 0
-12 -46 0
-12 -47 0
-12 -48 0
-12 -49 0
-12 -50 0
-12 -51 0
-12 -52 0
-12 -53 0
-12 -54 0
-12 -55 0
-13 -45 0
-13 -46 0
-13 -47 0
-13 -48 0
-13 -49 0
-13 -50 0
-13 -51 0
-13 -52 0
-13 -53 0
-13 -54 0
-13 -55 0
-13 -56 0
-14 -45 0
-14 -46 0
-14 -47 0
-14 -48 0
-14 -49 0
-14 -50 0
-14 -51 0
-14 -52 0
-14 -53 0
-14 -54 0
-14 -55 0
-14 -56 0
-14 -57 0
-14 -62 0
-14 -64 0
-15 -45 0
-15 -46 0
-15 -47 0
-15 -48 0
-15 -49 0
-15 -50 0
-15 -51 0
-15 -52 0
-15 -53 0
-15 -54 0
-15 -55 0
-15 -56 0
-15 -57 0
-15 -58 0
-15 -65 0
-16 -45 0
-16 -46 0
-16 -47 0
-16 -48 0
-16 -49 0
-16 -50 0
-16 -51 0
-16 -52 0
-16 -53 0
-16 -54 0
-16 -55 0
-16 -56 0
-16 -57 0
-16 -58 0
-16 -59 0
-17 -45 0
-17 -46 0
-17 -47 0
-17 -48 0
-17 -49 0
-17 -50 0
-17 -51 0
-17 -52 0
-17 -53 0
-17 -54 0
-17 -55 0
-17 -56 0
-17 -57 0
-17 -58 0
-17 -59 0
-17 -60 0
-17 -63 0
-18 -45 0
-18 -46 0
-18 -47 0
-18 -48 0
-18 -49 0
-18 -50 0
-18 -51 0
-18 -52 0
-18 -53 0
-18 -54 0
-18 -55 0
-18 -56 0
-18 -57 0
-18 -58 0
-18 -59 0
-18 -60 0
-18 -61 0
-19 -45 0
-19 -46 0
-19 -47 0
-19 -48 0
-19 -49 0
-19 -50 0
-19 -51 0
-19 -52 0
-19 -53 0
-19 -54 0
-19 -55 0
-19 -56 0
-19 -57 0
-19 -58 0
-19 -59 0
-19 -60 0
-19 -61 0
-19 -62 0
-20 -45 0
-20 -46 0
-20 -47 0
-20 -48 0
-20 -49 0
-20 -50 0
-20 -51 0
-20 -52 0
-20 -53 0
-20 -54 0
-20 -55 0
-20 -56 0
-20 -57 0
-20 -58 0
-20 -59 0
-20 -60 0
-20 -61 0
-20 -62 0
-20 -63 0
-21 -45 0
-21 -46 0
-21 -47 0
-21 -48 0
-21 -49 0
-21 -50 0
-21 -51 0
-21 -52 0
-21 -53 0
-21 -54 0
-21 -55 0
-21 -56 0
-21 -57 0
-21 -58 0
-21 -59 0
-21 -60 0
-21 -61 0
-21 -62 0
-21 -63 0
-21 -64 0
-22 -45 0
-22 -46 0
-22 -47 0
-22 -48 0
-22 -49 0
-22 -50 0
-22 -51 0
-22 -52 0
-22 -53 0
-22 -54 0
-22 -55 0
-22 -56 0
-22 -57 0
-22 -58 0
-22 -59 0
-22 -60 0
-22 -61 0
-22 -62 0
-22 -63 0
-22 -64 0
-22 -65 0
-23 -55 0
-23 -57 0
-23 -58 0
-23 -60 0
-23 -61 0
-23 -66 0
-24 -45 0
-24 -47 0
-24 -52 0
-24 -53 0
-25 -45 0
-25 -46 0
-25 -49 0
-25 -51 0
-25 -54 0
-25 -58 0
-25 -63 0
-26 -45 0
-26 -46 0
-26 -47 0
-26 -49 0
-26 -50 0
-26 -53 0
-26 -61 0
-26 -65 0
-27 -45 0
-27 -46 0
-27 -47 0
-27 -48 0
-27 -53 0
-27 -61 0
-27 -62 0
-27 -63 0
-27 -66 0
-28 -45 0
-28 -46 0
-28 -47 0
-28 -48 0
-28 -49 0
-28 -52 0
-28 -54 0
-28 -59 0
-29 -45 0
-29 -46 0
-29 -47 0
-29 -48 0
-29 -49 0
-29 -50 0
-29 -52 0
-29 -58 0
-30 -45 0
-30 -46 0
-30 -47 0
-30 -48 0
-30 -49 0
-30 -50 0
-30 -51 0
-30 -63 0
-31 -45 0
-31 -46 0
-31 -47 0
-31 -48 0
-31 -49 0
-31 -50 0
-31 -51 0
-31 -52 0
-31 -54 0
-31 -58 0
-31 -63 0
-32 -45 0
-32 -46 0
-32 -47 0
-32 -48 0
-32 -49 0
-32 -50 0
-32 -51 0
-32 -52 0
-32 -53 0
-32 -57 0
-32 -61 0
-32 -64 0
-33 -45 0
-33 -46 0
-33 -47 0
-33 -48 0
-33 -49 0
-33 -50 0
-33 -51 0
-33 -52 0
-33 -53 0
-33 -54 0
-33 -57 0
-34 -45 0
-34 -46 0
-34 -47 0
-34 -48 0
-34 -49 0
-34 -50 0
-34 -51 0
-34 -52 0
-34 -53 0
-34 -54 0
-34 -55 0
-35 -45 0
-35 -46 0
-35 -47 0
-35 -48 0
-35 -49 0
-35 -50 0
-35 -51 0
-35 -52 0
-35 -53 0
-35 -54 0
-35 -55 0
-35 -56 0
-36 -45 0
-36 -46 0
-36 -47 0
-36 -48 0
-36 -49 0
-36 -50 0
-36 -51 0
-36 -52 0
-36 -53 0
-36 -54 0
-36 -55 0
-36 -56 0
-36 -57 0
-36 -62 0
-36 -64 0
-37 -45 0
-37 -46 0
-37 -47 0
-37 -48 0
-37 -49 0
-37 -50 0
-37 -51 0
-37 -52 0
-37 -53 0
-37 -54 0
-37 -55 0
-37 -56 0
-37 -57 0
-37 -58 0
-37 -65 0
-38 -45 0
-38 -46 0
-38 -47 0
-38 -48 0
-38 -49 0
-38 -50 0
-38 -51 0
-38 -52 0
-38 -53 0
-38 -54 0
-38 -55 0
-38 -56 0
-38 -57 0
-38 -58 0
-38 -59 0
-39 -45 0
-39 -46 0
-39 -47 0
-39 -48 0
-39 -49 0
-39 -50 0
-39 -51 0
-39 -52 0
-39 -53 0
-39 -54 0
-39 -55 0
-39 -56 0
-39 -57 0
-39 -58 0
-39 -59 0
-39 -60 0
-39 -63 0
-40 -45 0
-40 -46 0
-40 -47 0
-40 -48 0
-40 -49 0
-40 -50 0
-40 -51 0
-40 -52 0
-40 -53 0
-40 -54 0
-40 -55 0
-40 -56 0
-40 -57 0
-40 -58 0
-40 -59 0
-40 -60 0
-40 -61 0
-41 -45 0
-41 -46 0
-41 -47 0
-41 -48 0
-41 -49 0
-41 -50 0
-41 -51 0
-41 -52 0
-41 -53 0
-41 -54 0
-41 -55 0
-41 -56 0
-41 -57 0
-41 -58 0
-41 -59 0
-41 -60 0
-41 -61 0
-41 -62 0
-42 -45 0
-42 -46 0
-42 -47 0
-42 -48 0
-42 -49 0
-42 -50 0
-42 -51 0
-42 -52 0
-42 -53 0
-42 -54 0
-42 -55 0
-42 -56 0
-42 -57 0
-42 -58 0
-42 -59 0
-42 -60 0
-42 -61 0
-42 -62 0
-42 -63 0
-43 -45 0
-43 -46 0
-43 -47 0
-43 -48 0
-43 -49 0
-43 -50 0
-43 -51 0
-43 -52 0
-43 -53 0
-43 -54 0
-43 -55 0
-43 -56 0
-43 -57 0
-43 -58 0
-43 -59 0
-43 -60 0
-43 -61 0
-43 -62 0
-43 -63 0
-43 -64 0
-44 -45 0
-44 -46 0
-44 -47 0
-44 -48 0
-44 -49 0
-44 -50 0
-44 -51 0
-44 -52 0
-44 -53 0
-44 -54 0
-44 -55 0
-44 -56 0
-44 -57 0
-44 -58 0
-44 -59 0
-44 -60 0
-44 -61 0
-44 -62 0
-44 -63 0
-44 -64 0
-44 -65 0
